0001 14
0002 13
0003 5
0004 6
0005 1
0006 1
0007 1
0008 2
0009 1
0010 8
0011 10
0012 17
0013 18
0014 16
0015 5
0016 14
0017 11
0018 2
0019 3
0020 12
0021 13
0022 6
0023 15
0024 4
0025 1
0026 9
0027 8
0028 7
0029 7
0030 17
0031 18
0032 10
0033 2
0034 18
0035 6
0036 16
0037 13
0038 17
0039 18
0040 9
0041 7
0042 3
0043 16
0044 12
0045 13
0046 5
0047 17
0048 15
0049 10
0050 6
0051 3
0052 18
0053 1
0054 10
0055 14
0056 2
0057 7
0058 5
0059 15
0060 9
0061 18
0062 1
0063 9
0064 15
0065 3
0066 9
0067 9
0068 8
0069 1
0070 11
0071 4
0072 18
0073 1
0074 14
0075 18
0076 5
0077 15
0078 6
0079 11
0080 17
0081 12